(set-logic QF_S)
(declare-fun var0 () String)
(declare-fun var1 () String)
(declare-fun var2 () String)
(declare-fun var3 () String)
(declare-fun var4 () String)
(declare-fun var5 () String)
(declare-fun var6 () String)
(declare-fun var7 () String)
(declare-fun var8 () String)
(declare-fun var9 () String)
(declare-fun var10 () String)
(declare-fun var11 () String)
(declare-fun var12 () String)
(declare-fun var13 () String)
(declare-fun var14 () String)
(declare-fun var15 () String)
(declare-fun var16 () String)
(declare-fun var17 () String)
(declare-fun var18 () String)
(declare-fun var19 () String)
(declare-fun var20 () String)
(declare-fun var21 () String)
(declare-fun var22 () String)
(declare-fun var23 () String)
(declare-fun var24 () String)
(declare-fun var25 () String)
(declare-fun var26 () String)
(declare-fun var27 () String)
(declare-fun var28 () String)
(declare-fun var29 () String)
(declare-fun var30 () String)
(declare-fun var31 () String)
(declare-fun var32 () String)
(declare-fun var33 () String)
(declare-fun var34 () String)
(declare-fun var35 () String)
(declare-fun var36 () String)
(declare-fun var37 () String)
(declare-fun var38 () String)
(declare-fun var39 () String)
(declare-fun var40 () String)
(declare-fun var41 () String)
(declare-fun var42 () String)
(declare-fun var43 () String)
(declare-fun var44 () String)
(declare-fun var45 () String)
(declare-fun var46 () String)
(declare-fun var47 () String)
(declare-fun var48 () String)
(declare-fun var49 () String)
(declare-fun var50 () String)
(declare-fun var51 () String)
(declare-fun var52 () String)
(declare-fun var53 () String)
(declare-fun var54 () String)
(declare-fun var55 () String)
(declare-fun var56 () String)
(declare-fun var57 () String)
(declare-fun var58 () String)
(declare-fun var59 () String)
(declare-fun var60 () String)
(assert (= var0 (str.++ var1 var2)))
(assert (= var2 (str.++ var3 var4)))
(assert (= var4 (str.++ var5 var6)))
(assert (= var6 (str.++ var7 var8)))
(assert (= var8 (str.++ var9 var10)))
(assert (= var10 (str.++ var11 var12)))
(assert (= var12 (str.++ var13 var14)))
(assert (= var14 (str.++ var15 var16)))
(assert (= var16 (str.++ var17 var18)))
(assert (= var18 (str.++ var19 var20)))
(assert (= var20 (str.++ var21 var22)))
(assert (= var22 (str.++ var23 var24)))
(assert (= var24 (str.++ var25 var26)))
(assert (= var26 (str.++ var27 var28)))
(assert (= var28 (str.++ var29 var30)))
(assert (= var30 (str.++ var31 var32)))
(assert (= var32 (str.++ var33 var34)))
(assert (= var34 (str.++ var35 var36)))
(assert (= var36 (str.++ var37 var38)))
(assert (= var38 (str.++ var39 var40)))
(assert (= var40 (str.++ var41 var42)))
(assert (= var42 (str.++ var43 var44)))
(assert (= var44 (str.++ var45 var46)))
(assert (= var46 (str.++ var47 var48)))
(assert (= var48 (str.++ var49 var50)))
(assert (= var50 (str.++ var51 var52)))
(assert (= var52 (str.++ var53 var54)))
(assert (= var54 (str.++ var55 var56)))
(assert (= var56 (str.++ var57 var58)))
(assert (= var58 (str.++ var59 var60)))
(assert (= var0 "solution"))
(assert (= "@" (str.at var4 680)))
(assert (= "o" (str.at var56 588)))
(assert (= "D" (str.at var29 724)))
(assert (= "9" (str.at var49 37)))
(assert (= "{" (str.at var25 689)))
(assert (= "B" (str.at var35 842)))
(assert (= "8" (str.at var50 751)))
(assert (= "D" (str.at var41 814)))
(assert (= "V" (str.at var13 42)))
(assert (= "f" (str.at var53 953)))
(assert (= "E" (str.at var53 468)))
(assert (= "y" (str.at var58 291)))
(assert (= "W" (str.at var46 448)))
(assert (= "t" (str.at var55 660)))
(assert (= ">" (str.at var13 129)))
(assert (= "B" (str.at var17 532)))
(assert (= "&" (str.at var39 869)))
(assert (= "$" (str.at var0 734)))
(assert (= "5" (str.at var28 299)))
(assert (= "k" (str.at var45 734)))
(assert (= "m" (str.at var37 147)))
(assert (= "@" (str.at var42 736)))
(assert (= "3" (str.at var31 643)))
(assert (= "@" (str.at var21 886)))
(assert (= "p" (str.at var41 342)))
(assert (= "E" (str.at var29 364)))
(assert (= "A" (str.at var57 800)))
(assert (= "[" (str.at var38 38)))
(assert (= "s" (str.at var43 171)))
(assert (= "U" (str.at var32 757)))
(assert (= "j" (str.at var17 400)))
(assert (= "1" (str.at var46 22)))
(assert (= "B" (str.at var51 394)))
(assert (= "z" (str.at var54 753)))
(assert (= "_" (str.at var30 671)))
(assert (= "*" (str.at var4 447)))
(assert (= "%" (str.at var9 925)))
(assert (= "." (str.at var21 133)))
(assert (= "i" (str.at var58 10)))
(assert (= "d" (str.at var11 486)))
(assert (= "x" (str.at var10 944)))
(assert (= "." (str.at var38 347)))
(assert (= "^" (str.at var54 949)))
(assert (= "C" (str.at var44 401)))
(assert (= "{" (str.at var34 777)))
(assert (= "+" (str.at var11 249)))
(assert (= "h" (str.at var6 863)))
(assert (= "K" (str.at var55 391)))
(assert (= "q" (str.at var15 219)))
(assert (= "d" (str.at var22 306)))
(assert (= "`" (str.at var51 423)))
(assert (= "g" (str.at var2 592)))
(assert (= "u" (str.at var17 666)))
(assert (= "-" (str.at var12 121)))
(assert (= "t" (str.at var8 971)))
(assert (= "g" (str.at var43 997)))
(assert (= ">" (str.at var8 407)))
(assert (= "*" (str.at var36 376)))
(assert (= "S" (str.at var5 399)))
(assert (= "3" (str.at var18 204)))
(assert (= "j" (str.at var18 703)))
(assert (= "#" (str.at var52 210)))
(assert (= "}" (str.at var23 947)))
(assert (= "a" (str.at var59 634)))
(assert (= "B" (str.at var10 531)))
(assert (= """" (str.at var24 785)))
(assert (= "." (str.at var4 607)))
(assert (= "F" (str.at var38 870)))
(assert (= "d" (str.at var22 861)))
(assert (= "k" (str.at var9 420)))
(assert (= "e" (str.at var11 810)))
(assert (= "r" (str.at var10 703)))
(assert (= "7" (str.at var46 113)))
(assert (= "s" (str.at var41 787)))
(assert (= "T" (str.at var43 52)))
(assert (= "f" (str.at var19 795)))
(assert (= "M" (str.at var47 261)))
(assert (= "b" (str.at var38 906)))
(assert (= "_" (str.at var12 539)))
(assert (= "(" (str.at var27 818)))
(assert (= "g" (str.at var48 674)))
(assert (= "f" (str.at var5 676)))
(assert (= "l" (str.at var22 877)))
(assert (= "6" (str.at var42 917)))
(assert (= ":" (str.at var19 690)))
(assert (= "+" (str.at var17 619)))
(assert (= "c" (str.at var50 634)))
(assert (= "%" (str.at var7 107)))
(assert (= "H" (str.at var11 466)))
(assert (= "t" (str.at var15 924)))
(assert (= "c" (str.at var24 433)))
(assert (= "p" (str.at var32 357)))
(assert (= "H" (str.at var50 391)))
(assert (= "v" (str.at var5 468)))
(assert (= "S" (str.at var21 535)))
(assert (= "w" (str.at var24 875)))
(assert (= "x" (str.at var24 681)))
(assert (= "b" (str.at var17 325)))
(assert (= "m" (str.at var57 97)))
(assert (= "f" (str.at var11 976)))
(assert (= "`" (str.at var47 374)))
(assert (= "%" (str.at var43 148)))
(assert (= "t" (str.at var49 117)))
(assert (= "5" (str.at var48 201)))
(assert (= "`" (str.at var6 678)))
(assert (= "<" (str.at var43 923)))
(assert (= "{" (str.at var44 234)))
(assert (= "F" (str.at var58 896)))
(assert (= "e" (str.at var54 873)))
(assert (= "H" (str.at var6 814)))
(assert (= "`" (str.at var18 625)))
(assert (= "&" (str.at var28 307)))
(assert (= "<" (str.at var49 294)))
(assert (= "," (str.at var58 603)))
(assert (= "m" (str.at var25 219)))
(assert (= "c" (str.at var41 346)))
(assert (= "&" (str.at var24 55)))
(assert (= "T" (str.at var43 881)))
(assert (= "C" (str.at var4 656)))
(assert (= "0" (str.at var41 427)))
(assert (= "*" (str.at var15 571)))
(assert (= ":" (str.at var44 32)))
(assert (= "w" (str.at var26 124)))
(assert (= "Q" (str.at var50 333)))
(assert (= "|" (str.at var48 571)))
(assert (= "{" (str.at var44 217)))
(assert (= "7" (str.at var53 142)))
(assert (= "x" (str.at var56 459)))
(assert (= "Y" (str.at var44 969)))
(assert (= "h" (str.at var38 218)))
(assert (= "7" (str.at var45 703)))
(assert (= "f" (str.at var39 421)))
(assert (= "a" (str.at var18 675)))
(assert (= "c" (str.at var46 892)))
(assert (= "H" (str.at var11 510)))
(assert (= "l" (str.at var41 466)))
(assert (= "{" (str.at var60 722)))
(assert (= "7" (str.at var23 261)))
(assert (= "q" (str.at var1 658)))
(assert (= "%" (str.at var13 252)))
(assert (= "[" (str.at var28 806)))
(assert (= "5" (str.at var46 709)))
(assert (= "*" (str.at var57 138)))
(assert (= "!" (str.at var35 738)))
(assert (= "y" (str.at var60 34)))
(assert (= "r" (str.at var25 506)))
(assert (= "*" (str.at var48 511)))
(assert (= "y" (str.at var48 652)))
(assert (= "\\" (str.at var43 458)))
(assert (= "2" (str.at var50 428)))
(assert (= "u" (str.at var29 985)))
(assert (= "$" (str.at var16 978)))
(assert (= "_" (str.at var13 773)))
(assert (= "2" (str.at var16 574)))
(assert (= "C" (str.at var30 557)))
(assert (= "G" (str.at var4 246)))
(assert (= "m" (str.at var41 904)))
(assert (= "W" (str.at var6 571)))
(assert (= "e" (str.at var5 58)))
(assert (= "k" (str.at var30 895)))
(assert (= "I" (str.at var18 747)))
(assert (= "+" (str.at var1 756)))
(assert (= "k" (str.at var0 25)))
(assert (= "$" (str.at var29 567)))
(assert (= "!" (str.at var22 560)))
(assert (= "7" (str.at var7 398)))
(assert (= "A" (str.at var58 286)))
(assert (= "7" (str.at var33 420)))
(assert (= "d" (str.at var42 93)))
(assert (= "9" (str.at var44 988)))
(assert (= "," (str.at var44 861)))
(assert (= "c" (str.at var47 517)))
(assert (= "N" (str.at var13 620)))
(assert (= "l" (str.at var2 752)))
(assert (= "i" (str.at var52 437)))
(assert (= "F" (str.at var41 291)))
(assert (= "D" (str.at var26 871)))
(assert (= "+" (str.at var28 295)))
(assert (= "v" (str.at var57 464)))
(assert (= "8" (str.at var46 553)))
(assert (= "," (str.at var16 179)))
(assert (= ">" (str.at var17 52)))
(assert (= "5" (str.at var2 548)))
(assert (= "L" (str.at var35 721)))
(assert (= "%" (str.at var1 136)))
(assert (= "`" (str.at var51 741)))
(assert (= "B" (str.at var13 167)))
(assert (= "[" (str.at var36 149)))
(assert (= "P" (str.at var41 777)))
(assert (= "<" (str.at var51 159)))
(assert (= "3" (str.at var59 863)))
(assert (= "G" (str.at var36 420)))
(assert (= "@" (str.at var53 943)))
(assert (= ")" (str.at var50 916)))
(assert (= "<" (str.at var44 490)))
(assert (= "V" (str.at var24 428)))
(assert (= ")" (str.at var7 720)))
(assert (= ";" (str.at var13 840)))
(assert (= "V" (str.at var5 723)))
(assert (= "2" (str.at var40 820)))
(assert (= "K" (str.at var10 335)))
(assert (= "Y" (str.at var45 561)))
(assert (= "5" (str.at var4 111)))
(assert (= "p" (str.at var26 695)))
(assert (= "4" (str.at var48 582)))
(assert (= "C" (str.at var23 67)))
(assert (= "(" (str.at var20 515)))
(assert (= "|" (str.at var54 181)))
(assert (= "8" (str.at var36 526)))
(assert (= "[" (str.at var4 477)))
(assert (= "Q" (str.at var34 349)))
(assert (= "W" (str.at var48 305)))
(assert (= "P" (str.at var19 476)))
(assert (= "3" (str.at var7 747)))
(assert (= "4" (str.at var45 216)))
(assert (= "8" (str.at var17 182)))
(assert (= "]" (str.at var56 356)))
(assert (= "7" (str.at var18 718)))
(assert (= "q" (str.at var18 431)))
(assert (= ">" (str.at var42 306)))
(assert (= "\\" (str.at var32 79)))
(assert (= "A" (str.at var21 481)))
(assert (= "W" (str.at var60 352)))
(assert (= "u" (str.at var1 92)))
(assert (= "Y" (str.at var32 603)))
(assert (= "." (str.at var52 960)))
(assert (= ">" (str.at var12 94)))
(assert (= "j" (str.at var45 616)))
(assert (= "V" (str.at var60 313)))
(assert (= "c" (str.at var37 162)))
(assert (= "q" (str.at var41 166)))
(assert (= ":" (str.at var47 751)))
(assert (= "x" (str.at var1 634)))
(assert (= "8" (str.at var18 596)))
(assert (= "h" (str.at var26 507)))
(assert (= "P" (str.at var31 461)))
(assert (= "{" (str.at var22 794)))
(assert (= "L" (str.at var57 221)))
(assert (= "r" (str.at var28 940)))
(assert (= "s" (str.at var37 769)))
(assert (= "C" (str.at var14 462)))
(assert (= "6" (str.at var2 90)))
(assert (= "#" (str.at var16 401)))
(assert (= "e" (str.at var52 557)))
(assert (= "N" (str.at var52 574)))
(assert (= "u" (str.at var20 523)))
(assert (= "'" (str.at var58 737)))
(assert (= "e" (str.at var48 784)))
(assert (= "/" (str.at var13 558)))
(assert (= "e" (str.at var18 933)))
(assert (= "&" (str.at var56 31)))
(assert (= "1" (str.at var47 8)))
(assert (= "-" (str.at var56 901)))
(assert (= "*" (str.at var49 982)))
(assert (= "A" (str.at var15 906)))
(assert (= "1" (str.at var48 405)))
(assert (= "\\" (str.at var9 895)))
(assert (= "s" (str.at var23 126)))
(assert (= ">" (str.at var33 194)))
(assert (= "3" (str.at var39 691)))
(assert (= "p" (str.at var22 685)))
(assert (= "x" (str.at var11 591)))
(assert (= "2" (str.at var48 491)))
(assert (= "w" (str.at var35 352)))
(assert (= "," (str.at var56 677)))
(assert (= "O" (str.at var49 100)))
(assert (= ">" (str.at var1 160)))
(assert (= "(" (str.at var20 883)))
(assert (= "V" (str.at var24 21)))
(assert (= "P" (str.at var0 145)))
(assert (= "D" (str.at var48 855)))
(assert (= "W" (str.at var51 653)))
(assert (= "t" (str.at var52 551)))
(assert (= "v" (str.at var4 26)))
(assert (= "." (str.at var40 633)))
(assert (= "2" (str.at var56 34)))
(assert (= "7" (str.at var36 192)))
(assert (= "M" (str.at var4 245)))
(assert (= "9" (str.at var56 76)))
(assert (= "|" (str.at var45 759)))
(assert (= "N" (str.at var27 227)))
(assert (= "Y" (str.at var14 151)))
(assert (= "x" (str.at var14 225)))
(assert (= "!" (str.at var36 894)))
(assert (= "s" (str.at var16 534)))
(assert (= """" (str.at var19 799)))
(assert (= "c" (str.at var54 141)))
(assert (= "G" (str.at var59 610)))
(assert (= "o" (str.at var55 37)))
(assert (= "<" (str.at var14 83)))
(assert (= "y" (str.at var30 498)))
(assert (= "m" (str.at var37 498)))
(assert (= "l" (str.at var5 101)))
(assert (= "O" (str.at var23 98)))
(assert (= "(" (str.at var1 233)))
(assert (= "t" (str.at var28 402)))
(assert (= "1" (str.at var35 441)))
(assert (= "." (str.at var26 31)))
(assert (= "G" (str.at var4 385)))
(assert (= "o" (str.at var21 350)))
(assert (= "a" (str.at var55 496)))
(assert (= "w" (str.at var55 631)))
(assert (= "=" (str.at var31 697)))
(assert (= "]" (str.at var34 779)))
(assert (= "i" (str.at var56 490)))
(assert (= "+" (str.at var8 425)))
(assert (= "-" (str.at var6 291)))
(assert (= "*" (str.at var0 976)))
(assert (= "(" (str.at var49 492)))
(assert (= "U" (str.at var6 698)))
(assert (= "." (str.at var34 506)))
(assert (= "b" (str.at var18 347)))
(assert (= "/" (str.at var21 146)))
(assert (= "y" (str.at var20 2)))
(assert (= "f" (str.at var32 881)))
(assert (= "0" (str.at var2 718)))
(assert (= "E" (str.at var22 992)))
(assert (= "F" (str.at var42 734)))
(assert (= "." (str.at var16 723)))
(assert (= "m" (str.at var20 234)))
(assert (= "0" (str.at var50 420)))
(assert (= "E" (str.at var21 334)))
(assert (= "v" (str.at var22 352)))
(assert (= "O" (str.at var22 811)))
(assert (= "J" (str.at var50 612)))
(assert (= "`" (str.at var28 867)))
(assert (= "'" (str.at var51 449)))
(assert (= "(" (str.at var34 28)))
(assert (= "h" (str.at var5 656)))
(assert (= "r" (str.at var19 429)))
(assert (= "B" (str.at var32 381)))
(assert (= "3" (str.at var36 229)))
(assert (= "{" (str.at var42 691)))
(assert (= "d" (str.at var26 574)))
(assert (= "7" (str.at var49 935)))
(assert (= "{" (str.at var32 907)))
(assert (= "c" (str.at var26 755)))
(assert (= "s" (str.at var20 236)))
(assert (= "Z" (str.at var57 60)))
(assert (= "C" (str.at var24 762)))
(assert (= "." (str.at var1 220)))
(assert (= """" (str.at var50 878)))
(assert (= "T" (str.at var56 585)))
(assert (= "8" (str.at var36 701)))
(assert (= "D" (str.at var42 799)))
(assert (= "<" (str.at var8 734)))
(assert (= "^" (str.at var5 407)))
(assert (= "G" (str.at var21 610)))
(assert (= "l" (str.at var37 485)))
(assert (= "," (str.at var6 569)))
(assert (= "E" (str.at var29 655)))
(assert (= "O" (str.at var2 598)))
(assert (= "j" (str.at var7 883)))
(assert (= "F" (str.at var40 801)))
(assert (= "K" (str.at var34 603)))
(assert (= "H" (str.at var39 521)))
(assert (= "T" (str.at var54 185)))
(assert (= "," (str.at var52 838)))
(assert (= "%" (str.at var28 685)))
(assert (= "7" (str.at var9 339)))
(assert (= "}" (str.at var19 761)))
(assert (= ")" (str.at var8 335)))
(assert (= "~" (str.at var26 633)))
(assert (= "=" (str.at var60 471)))
(assert (= "6" (str.at var10 886)))
(assert (= "<" (str.at var46 658)))
(assert (= "U" (str.at var16 651)))
(assert (= "/" (str.at var23 208)))
(assert (= "}" (str.at var17 845)))
(assert (= "h" (str.at var11 668)))
(assert (= "j" (str.at var47 181)))
(assert (= "w" (str.at var17 908)))
(assert (= "U" (str.at var2 346)))
(assert (= "@" (str.at var38 730)))
(assert (= "Z" (str.at var1 64)))
(assert (= "4" (str.at var57 17)))
(assert (= "W" (str.at var51 841)))
(assert (= "o" (str.at var31 215)))
(assert (= "j" (str.at var9 505)))
(assert (= ")" (str.at var46 362)))
(assert (= "K" (str.at var18 344)))
(assert (= "K" (str.at var21 438)))
(assert (= "N" (str.at var34 163)))
(assert (= "j" (str.at var38 664)))
(assert (= "C" (str.at var25 583)))
(assert (= "D" (str.at var12 58)))
(assert (= "c" (str.at var38 98)))
(assert (= "U" (str.at var51 439)))
(assert (= "a" (str.at var27 198)))
(assert (= "O" (str.at var23 295)))
(assert (= "K" (str.at var8 624)))
(assert (= "g" (str.at var16 500)))
(assert (= "4" (str.at var10 51)))
(assert (= "Q" (str.at var38 811)))
(assert (= "Z" (str.at var5 712)))
(assert (= "\\" (str.at var2 748)))
(assert (= "D" (str.at var39 820)))
(assert (= "v" (str.at var55 94)))
(assert (= "0" (str.at var18 968)))
(assert (= "/" (str.at var39 589)))
(assert (= "O" (str.at var6 975)))
(assert (= "." (str.at var12 657)))
(assert (= "h" (str.at var57 226)))
(assert (= ")" (str.at var38 80)))
(assert (= "*" (str.at var31 986)))
(assert (= "!" (str.at var44 920)))
(assert (= "8" (str.at var56 667)))
(assert (= "s" (str.at var47 278)))
(assert (= "n" (str.at var9 882)))
(assert (= "b" (str.at var3 910)))
(assert (= "." (str.at var49 956)))
(assert (= "c" (str.at var27 602)))
(assert (= "0" (str.at var47 199)))
(assert (= "J" (str.at var60 835)))
(assert (= "3" (str.at var19 832)))
(assert (= "3" (str.at var22 943)))
(assert (= "F" (str.at var12 933)))
(assert (= "l" (str.at var45 587)))
(assert (= "." (str.at var53 444)))
(assert (= "," (str.at var10 994)))
(assert (= "j" (str.at var16 99)))
(assert (= "(" (str.at var26 355)))
(assert (= "{" (str.at var18 950)))
(assert (= "k" (str.at var18 780)))
(assert (= "N" (str.at var26 503)))
(assert (= "G" (str.at var3 550)))
(assert (= "n" (str.at var16 865)))
(assert (= "k" (str.at var38 203)))
(assert (= "Q" (str.at var25 514)))
(assert (= "X" (str.at var41 518)))
(assert (= "7" (str.at var15 820)))
(assert (= "l" (str.at var42 733)))
(assert (= "8" (str.at var45 517)))
(assert (= """" (str.at var44 607)))
(assert (= "?" (str.at var22 190)))
(assert (= "(" (str.at var56 742)))
(assert (= ";" (str.at var9 243)))
(assert (= "j" (str.at var17 180)))
(assert (= "I" (str.at var53 865)))
(assert (= "J" (str.at var14 169)))
(assert (= "R" (str.at var50 629)))
(assert (= "`" (str.at var25 947)))
(assert (= "I" (str.at var7 684)))
(assert (= "," (str.at var27 427)))
(assert (= "j" (str.at var21 736)))
(assert (= "0" (str.at var37 362)))
(assert (= ")" (str.at var28 154)))
(assert (= "[" (str.at var50 855)))
(assert (= "+" (str.at var5 108)))
(assert (= "q" (str.at var19 181)))
(assert (= "Y" (str.at var50 140)))
(assert (= "p" (str.at var28 89)))
(assert (= "X" (str.at var8 397)))
(assert (= "i" (str.at var59 51)))
(assert (= "P" (str.at var13 463)))
(assert (= "u" (str.at var41 956)))
(assert (= "<" (str.at var52 329)))
(assert (= "h" (str.at var44 230)))
(assert (= "x" (str.at var46 285)))
(assert (= "V" (str.at var42 229)))
(assert (= "h" (str.at var55 43)))
(assert (= "x" (str.at var5 523)))
(assert (= "~" (str.at var57 89)))
(assert (= "r" (str.at var10 12)))
(assert (= "~" (str.at var42 926)))
(assert (= "T" (str.at var0 589)))
(assert (= "|" (str.at var38 924)))
(assert (= "I" (str.at var28 999)))
(assert (= "w" (str.at var29 173)))
(assert (= "?" (str.at var25 77)))
(assert (= "c" (str.at var37 137)))
(assert (= ">" (str.at var32 806)))
(assert (= "}" (str.at var42 902)))
(assert (= "X" (str.at var49 702)))
(assert (= "T" (str.at var2 413)))
(assert (= "n" (str.at var24 310)))
(assert (= "s" (str.at var5 641)))
(assert (= "T" (str.at var60 150)))
(assert (= "6" (str.at var12 719)))
(assert (= "&" (str.at var3 429)))
(assert (= "c" (str.at var55 461)))
(assert (= "Q" (str.at var44 865)))
(assert (= ";" (str.at var55 179)))
(assert (= "E" (str.at var57 366)))
(assert (= "Q" (str.at var28 229)))
(assert (= "<" (str.at var42 75)))
(assert (= "W" (str.at var28 382)))
(assert (= "T" (str.at var7 706)))
(assert (= "t" (str.at var48 319)))
(assert (= ">" (str.at var8 95)))
(assert (= ")" (str.at var50 679)))
(assert (= "+" (str.at var26 80)))
(assert (= "B" (str.at var1 971)))
(assert (= "Y" (str.at var56 548)))
(assert (= "V" (str.at var56 938)))
(assert (= "/" (str.at var46 877)))
(assert (= "&" (str.at var58 306)))
(assert (= "1" (str.at var7 308)))
(assert (= "=" (str.at var3 53)))
(assert (= "1" (str.at var37 753)))
(assert (= "." (str.at var49 420)))
(assert (= "[" (str.at var33 587)))
(assert (= "6" (str.at var50 752)))
(assert (= "u" (str.at var11 124)))
(assert (= "k" (str.at var30 143)))
(assert (= "k" (str.at var36 691)))
(assert (= "X" (str.at var11 863)))
(assert (= ":" (str.at var32 773)))
(assert (= "C" (str.at var4 95)))
(assert (= "o" (str.at var46 935)))
(assert (= "8" (str.at var30 744)))
(assert (= "7" (str.at var0 776)))
(assert (= "O" (str.at var39 548)))
(assert (= "a" (str.at var19 539)))
(assert (= "N" (str.at var56 290)))
(assert (= "p" (str.at var9 971)))
(assert (= "]" (str.at var57 113)))
(assert (= "P" (str.at var34 367)))
(assert (= "3" (str.at var31 906)))
(assert (= "#" (str.at var11 930)))
(assert (= "z" (str.at var42 221)))
(assert (= "z" (str.at var42 73)))
(assert (= "A" (str.at var24 422)))
(assert (= "K" (str.at var40 299)))
(assert (= "Z" (str.at var14 287)))
(assert (= "|" (str.at var56 206)))
(assert (= "R" (str.at var38 389)))
(assert (= "i" (str.at var31 377)))
(assert (= "a" (str.at var20 437)))
(assert (= "N" (str.at var57 674)))
(assert (= "M" (str.at var58 880)))
(assert (= "D" (str.at var45 884)))
(assert (= "z" (str.at var0 378)))
(assert (= "D" (str.at var44 323)))
(assert (= "[" (str.at var33 404)))
(assert (= ";" (str.at var39 986)))
(assert (= "t" (str.at var11 136)))
(assert (= "^" (str.at var7 119)))
(assert (= "(" (str.at var35 808)))
(assert (= "x" (str.at var2 487)))
(assert (= "Z" (str.at var34 549)))
(assert (= "0" (str.at var3 740)))
(assert (= ")" (str.at var35 787)))
(assert (= "~" (str.at var52 235)))
(assert (= "D" (str.at var13 325)))
(assert (= "p" (str.at var54 481)))
(assert (= "?" (str.at var50 141)))
(assert (= ";" (str.at var7 14)))
(assert (= ":" (str.at var53 619)))
(assert (= "i" (str.at var29 4)))
(assert (= "u" (str.at var18 486)))
(assert (= "4" (str.at var18 4)))
(assert (= "[" (str.at var46 634)))
(assert (= "a" (str.at var5 653)))
(assert (= "Z" (str.at var17 417)))
(assert (= "I" (str.at var34 839)))
(assert (= "|" (str.at var19 609)))
(assert (= "a" (str.at var53 425)))
(assert (= "_" (str.at var26 735)))
(assert (= "$" (str.at var26 668)))
(assert (= "V" (str.at var41 151)))
(assert (= "\\" (str.at var56 33)))
(assert (= "z" (str.at var30 790)))
(assert (= "F" (str.at var4 504)))
(assert (= "R" (str.at var5 265)))
(assert (= ":" (str.at var10 125)))
(assert (= "r" (str.at var56 516)))
(assert (= "?" (str.at var14 487)))
(assert (= "K" (str.at var7 241)))
(assert (= "s" (str.at var28 315)))
(assert (= "-" (str.at var13 980)))
(assert (= "l" (str.at var12 63)))
(assert (= "K" (str.at var15 29)))
(assert (= "1" (str.at var22 664)))
(assert (= "," (str.at var56 768)))
(assert (= "M" (str.at var33 619)))
(assert (= "&" (str.at var55 553)))
(assert (= "O" (str.at var45 251)))
(assert (= """" (str.at var12 37)))
(assert (= "c" (str.at var43 623)))
(assert (= """" (str.at var37 410)))
(assert (= "v" (str.at var7 451)))
(assert (= "T" (str.at var31 346)))
(assert (= """" (str.at var24 152)))
(assert (= ":" (str.at var17 299)))
(assert (= "S" (str.at var38 428)))
(assert (= ">" (str.at var47 290)))
(assert (= "r" (str.at var5 771)))
(assert (= "3" (str.at var50 365)))
(assert (= "'" (str.at var54 205)))
(assert (= "h" (str.at var0 759)))
(assert (= "/" (str.at var22 85)))
(assert (= "s" (str.at var34 143)))
(assert (= "|" (str.at var4 404)))
(assert (= "v" (str.at var31 729)))
(assert (= "O" (str.at var20 991)))
(assert (= "*" (str.at var17 302)))
(assert (= "i" (str.at var13 30)))
(assert (= "g" (str.at var11 468)))
(assert (= "'" (str.at var24 316)))
(assert (= "V" (str.at var49 17)))
(assert (= "U" (str.at var9 977)))
(assert (= "_" (str.at var39 515)))
(assert (= "B" (str.at var51 475)))
(assert (= "K" (str.at var7 22)))
(assert (= "_" (str.at var48 44)))
(assert (= "^" (str.at var13 631)))
(assert (= "Z" (str.at var55 838)))
(assert (= "C" (str.at var27 675)))
(assert (= "~" (str.at var53 796)))
(assert (= "!" (str.at var30 135)))
(assert (= "C" (str.at var28 822)))
(assert (= "y" (str.at var16 929)))
(assert (= "]" (str.at var42 71)))
(assert (= "H" (str.at var30 399)))
(assert (= "<" (str.at var3 523)))
(assert (= "G" (str.at var15 607)))
(assert (= "\\" (str.at var44 387)))
(assert (= "g" (str.at var32 84)))
(assert (= "_" (str.at var14 312)))
(assert (= "%" (str.at var4 211)))
(assert (= "G" (str.at var10 581)))
(assert (= "\\" (str.at var57 298)))
(assert (= "v" (str.at var4 371)))
(assert (= "n" (str.at var58 612)))
(assert (= "\\" (str.at var26 536)))
(assert (= "d" (str.at var7 231)))
(assert (= "F" (str.at var42 463)))
(assert (= "J" (str.at var26 81)))
(assert (= "h" (str.at var6 134)))
(assert (= "&" (str.at var31 224)))
(assert (= "9" (str.at var16 727)))
(assert (= "\\" (str.at var5 511)))
(assert (= "$" (str.at var1 531)))
(assert (= ">" (str.at var10 7)))
(assert (= "x" (str.at var19 112)))
(assert (= "k" (str.at var41 237)))
(assert (= "1" (str.at var35 656)))
(assert (= "h" (str.at var7 1000)))
(assert (= "9" (str.at var4 500)))
(assert (= "g" (str.at var3 156)))
(assert (= "N" (str.at var2 711)))
(assert (= "Z" (str.at var59 875)))
(assert (= "h" (str.at var5 746)))
(assert (= "v" (str.at var26 600)))
(assert (= "o" (str.at var30 192)))
(assert (= "Q" (str.at var4 807)))
(assert (= "Q" (str.at var21 314)))
(assert (= "Y" (str.at var0 275)))
(assert (= "A" (str.at var33 92)))
(assert (= "*" (str.at var19 598)))
(assert (= "=" (str.at var53 918)))
(assert (= "/" (str.at var18 24)))
(assert (= ">" (str.at var26 478)))
(assert (= "V" (str.at var55 338)))
(assert (= "W" (str.at var45 381)))
(assert (= "P" (str.at var21 640)))
(assert (= "," (str.at var48 181)))
(assert (= "Y" (str.at var37 141)))
(assert (= "A" (str.at var10 194)))
(assert (= "5" (str.at var18 991)))
(assert (= "!" (str.at var43 956)))
(assert (= "," (str.at var29 396)))
(assert (= "%" (str.at var23 828)))
(assert (= "H" (str.at var44 60)))
(assert (= "7" (str.at var46 718)))
(assert (= ")" (str.at var44 279)))
(assert (= "K" (str.at var38 322)))
(assert (= "<" (str.at var44 677)))
(assert (= "," (str.at var19 912)))
(assert (= "6" (str.at var60 154)))
(assert (= "." (str.at var58 400)))
(assert (= "X" (str.at var46 46)))
(assert (= "f" (str.at var10 368)))
(assert (= "Y" (str.at var4 444)))
(assert (= "E" (str.at var39 692)))
(assert (= ">" (str.at var44 27)))
(assert (= "p" (str.at var40 512)))
(assert (= "D" (str.at var49 98)))
(assert (= "<" (str.at var46 2)))
(assert (= """" (str.at var13 772)))
(assert (= "k" (str.at var25 633)))
(assert (= "g" (str.at var10 162)))
(assert (= "b" (str.at var23 599)))
(assert (= "4" (str.at var53 588)))
(assert (= "9" (str.at var47 480)))
(assert (= "m" (str.at var48 606)))
(assert (= "C" (str.at var33 38)))
(assert (= "C" (str.at var47 992)))
(assert (= "!" (str.at var29 582)))
(assert (= "u" (str.at var11 293)))
(assert (= "/" (str.at var42 473)))
(assert (= "+" (str.at var17 533)))
(assert (= "u" (str.at var40 591)))
(assert (= "+" (str.at var37 915)))
(assert (= "B" (str.at var5 395)))
(assert (= "s" (str.at var37 602)))
(assert (= "b" (str.at var55 372)))
(assert (= "C" (str.at var22 933)))
(assert (= "6" (str.at var5 722)))
(assert (= "-" (str.at var49 717)))
(assert (= "V" (str.at var33 383)))
(assert (= "Q" (str.at var15 279)))
(assert (= "<" (str.at var15 48)))
(assert (= "," (str.at var18 243)))
(assert (= "P" (str.at var35 657)))
(assert (= "k" (str.at var38 716)))
(assert (= "'" (str.at var38 204)))
(assert (= "r" (str.at var31 324)))
(assert (= "2" (str.at var18 241)))
(assert (= "S" (str.at var25 975)))
(assert (= ">" (str.at var57 650)))
(assert (= "k" (str.at var29 116)))
(assert (= "@" (str.at var28 160)))
(assert (= "{" (str.at var3 11)))
(assert (= "6" (str.at var7 819)))
(assert (= """" (str.at var38 602)))
(assert (= "}" (str.at var38 271)))
(assert (= "m" (str.at var6 35)))
(assert (= "8" (str.at var34 728)))
(assert (= ">" (str.at var32 904)))
(assert (= "D" (str.at var48 726)))
(assert (= "J" (str.at var14 978)))
(assert (= "H" (str.at var15 754)))
(assert (= "?" (str.at var39 626)))
(assert (= "u" (str.at var20 681)))
(assert (= "?" (str.at var33 553)))
(assert (= "s" (str.at var4 684)))
(assert (= "9" (str.at var55 168)))
(assert (= "{" (str.at var34 25)))
(assert (= "1" (str.at var39 348)))
(assert (= "J" (str.at var35 837)))
(assert (= "6" (str.at var58 587)))
(assert (= "O" (str.at var9 867)))
(assert (= "?" (str.at var55 392)))
(assert (= "$" (str.at var45 20)))
(assert (= "\\" (str.at var57 852)))
(assert (= "-" (str.at var50 563)))
(assert (= "o" (str.at var10 233)))
(assert (= "U" (str.at var37 738)))
(assert (= "L" (str.at var8 572)))
(assert (= "P" (str.at var26 334)))
(assert (= "X" (str.at var29 24)))
(assert (= "X" (str.at var38 309)))
(assert (= "_" (str.at var16 804)))
(assert (= "F" (str.at var52 788)))
(assert (= "s" (str.at var15 303)))
(assert (= "8" (str.at var40 123)))
(assert (= "8" (str.at var19 664)))
(assert (= "`" (str.at var12 593)))
(assert (= "$" (str.at var43 2)))
(assert (= "u" (str.at var22 580)))
(assert (= "*" (str.at var22 404)))
(assert (= "~" (str.at var46 5)))
(assert (= "y" (str.at var23 891)))
(assert (= "K" (str.at var39 499)))
(assert (= "z" (str.at var9 122)))
(assert (= "7" (str.at var43 464)))
(assert (= "T" (str.at var27 882)))
(assert (= "'" (str.at var50 559)))
(assert (= "Q" (str.at var29 755)))
(assert (= "7" (str.at var29 130)))
(assert (= ">" (str.at var26 664)))
(assert (= "d" (str.at var8 248)))
(assert (= "t" (str.at var14 666)))
(assert (= "t" (str.at var20 8)))
(assert (= "T" (str.at var20 755)))
(assert (= "[" (str.at var5 120)))
(assert (= "9" (str.at var30 759)))
(assert (= "<" (str.at var29 850)))
(assert (= "L" (str.at var55 590)))
(assert (= "]" (str.at var23 829)))
(assert (= "z" (str.at var6 271)))
(assert (= "%" (str.at var0 432)))
(assert (= "-" (str.at var32 939)))
(assert (= "m" (str.at var13 751)))
(assert (= "(" (str.at var18 834)))
(assert (= "M" (str.at var18 748)))
(assert (= "Y" (str.at var4 878)))
(assert (= "s" (str.at var52 793)))
(assert (= "8" (str.at var12 13)))
(assert (= "L" (str.at var55 726)))
(assert (= "c" (str.at var57 810)))
(assert (= "*" (str.at var53 814)))
(assert (= "Q" (str.at var10 88)))
(assert (= "K" (str.at var51 276)))
(assert (= "6" (str.at var9 294)))
(assert (= "Q" (str.at var21 682)))
(assert (= "_" (str.at var22 398)))
(assert (= "T" (str.at var25 451)))
(assert (= "y" (str.at var48 719)))
(assert (= "R" (str.at var26 788)))
(assert (= "'" (str.at var3 449)))
(assert (= "@" (str.at var52 184)))
(assert (= "k" (str.at var51 501)))
(assert (= "W" (str.at var12 948)))
(assert (= "D" (str.at var29 220)))
(assert (= "t" (str.at var25 922)))
(assert (= ":" (str.at var37 561)))
(assert (= "+" (str.at var31 161)))
(assert (= "]" (str.at var20 822)))
(assert (= "\\" (str.at var45 8)))
(assert (= "v" (str.at var1 799)))
(assert (= "X" (str.at var59 808)))
(assert (= "x" (str.at var48 66)))
(assert (= "V" (str.at var54 35)))
(assert (= "@" (str.at var29 6)))
(assert (= "G" (str.at var38 720)))
(assert (= """" (str.at var4 507)))
(assert (= "/" (str.at var14 494)))
(assert (= "S" (str.at var50 774)))
(assert (= "d" (str.at var2 388)))
(assert (= "E" (str.at var2 595)))
(assert (= "F" (str.at var51 164)))
(assert (= "d" (str.at var23 985)))
(assert (= "g" (str.at var36 17)))
(assert (= "V" (str.at var7 820)))
(assert (= "l" (str.at var18 847)))
(assert (= "O" (str.at var2 20)))
(assert (= "a" (str.at var12 641)))
(assert (= "T" (str.at var13 959)))
(assert (= "[" (str.at var42 67)))
(assert (= "b" (str.at var8 654)))
(assert (= "@" (str.at var40 39)))
(assert (= "+" (str.at var50 892)))
(assert (= "g" (str.at var44 552)))
(assert (= "b" (str.at var59 544)))
(assert (= "B" (str.at var46 324)))
(assert (= "9" (str.at var20 701)))
(assert (= "4" (str.at var45 982)))
(assert (= "o" (str.at var31 637)))
(assert (= "8" (str.at var46 336)))
(assert (= "7" (str.at var26 707)))
(assert (= "9" (str.at var37 132)))
(assert (= "9" (str.at var46 689)))
(assert (= "o" (str.at var0 527)))
(assert (= "d" (str.at var34 524)))
(assert (= "_" (str.at var49 823)))
(assert (= "I" (str.at var45 797)))
(assert (= "|" (str.at var17 171)))
(assert (= "q" (str.at var13 352)))
(assert (= "i" (str.at var42 730)))
(assert (= "m" (str.at var26 210)))
(assert (= "}" (str.at var44 840)))
(assert (= "t" (str.at var8 636)))
(assert (= "6" (str.at var6 93)))
(assert (= "/" (str.at var48 561)))
(assert (= ">" (str.at var57 638)))
(assert (= "0" (str.at var27 954)))
(assert (= ";" (str.at var14 486)))
(assert (= "W" (str.at var54 145)))
(assert (= "F" (str.at var9 613)))
(assert (= "i" (str.at var8 14)))
(assert (= "(" (str.at var13 920)))
(assert (= "l" (str.at var14 878)))
(assert (= "w" (str.at var14 339)))
(assert (= "-" (str.at var31 353)))
(assert (= "V" (str.at var30 757)))
(assert (= "m" (str.at var50 156)))
(assert (= "@" (str.at var35 54)))
(assert (= "7" (str.at var20 467)))
(assert (= "d" (str.at var13 116)))
(assert (= "t" (str.at var28 379)))
(assert (= "}" (str.at var17 926)))
(assert (= "8" (str.at var20 419)))
(assert (= "(" (str.at var51 431)))
(assert (= "|" (str.at var5 344)))
(assert (= "~" (str.at var37 405)))
(assert (= "@" (str.at var51 28)))
(assert (= ";" (str.at var45 694)))
(assert (= "7" (str.at var10 250)))
(assert (= "<" (str.at var22 126)))
(assert (= "'" (str.at var53 528)))
(assert (= "9" (str.at var60 917)))
(assert (= "l" (str.at var23 92)))
(assert (= "y" (str.at var32 965)))
(assert (= "c" (str.at var38 461)))
(assert (= "N" (str.at var59 42)))
(assert (= "J" (str.at var21 187)))
(assert (= "3" (str.at var50 342)))
(assert (= "2" (str.at var22 26)))
(check-sat)